
%FILE DATA:	Soccer Computational Problem for MiniZinc Models	%
%AUTHOR:	Jack Wall	%
%CONTACT:  	116397063@umail.ucc.ie			%
%LAST UPDATE:	03/19/2020, 18:19:11						%
%DESCRIPTION: 	200 games played with 40 games left				%


n=16; %number of teams

%Games to play
games=[|6,1|5,16|9,14|9,12|9,7|12,8|3,12|16,2|16,5|2,11|8,9|11,13|6,3|7,5|5,11|9,8|8,6|12,2|7,14|10,5|9,16|12,16|12,13|6,4|4,15|4,9|7,15|7,10|11,6|5,1|11,5|13,2|6,11|9,3|7,13|4,7|3,4|15,4|4,11|3,8|];

%Initial points
iPoints=[45,31,25,33,32,28,25,50,25,37,34,35,27,39,42,29];

%POSITION CONSTRAINTS
% [|teamID, operator, position|...]
% operators index:
%  1 for =  operator
%  2 for >  operator
%  3 for >= operator
%  4 for <  operator
%  5 for <= operator
positionConstraints=[|8,3,1|11,2,1|];